* ENCODING=ISO-8859-1
NAME          CPLEX
ROWS
 N  obj1    
 G  c1      
 G  c2      
 G  c3      
 G  c4      
 G  c5      
 G  c6      
 G  c7      
 G  c8      
 G  c9      
 G  c10     
 G  c11     
 G  c12     
 G  c13     
 G  c14     
 G  c15     
 G  c16     
 G  c17     
 G  c18     
 G  c19     
 G  c20     
 G  c21     
 G  c22     
 G  c23     
 G  c24     
 G  c25     
 G  c26     
 G  c27     
 G  c28     
 G  c29     
 G  c30     
 G  c31     
 G  c32     
 G  c33     
 G  c34     
 G  c35     
 G  c36     
 G  c37     
 G  c38     
 G  c39     
 G  c40     
COLUMNS
    MARK0000  'MARKER'                 'INTORG'
    x1        obj1                            1
    x1        c7                            671
    x1        c9                            854
    x1        c16                           347
    x1        c18                           712
    x1        c20                           471
    x1        c21                           425
    x2        obj1                            1
    x2        c4                            144
    x2        c13                           483
    x2        c27                           790
    x2        c36                           179
    x3        obj1                            1
    x3        c4                            503
    x3        c16                           369
    x3        c19                           682
    x3        c27                           454
    x4        obj1                            1
    x4        c5                            163
    x4        c16                           546
    x4        c23                           128
    x4        c31                           597
    x5        obj1                            1
    x5        c6                            570
    x5        c12                           852
    x5        c13                           834
    x5        c17                           857
    x5        c21                           817
    x5        c29                           246
    x5        c30                           533
    x5        c39                           381
    x6        obj1                            1
    x6        c1                            906
    x6        c23                           934
    x7        obj1                            1
    x7        c6                            925
    x7        c15                           690
    x8        obj1                            1
    x8        c5                            890
    x8        c11                           730
    x8        c35                           292
    x9        obj1                            1
    x9        c3                            912
    x9        c10                           432
    x9        c21                           604
    x9        c27                           830
    x9        c32                           836
    x10       obj1                            1
    x10       c6                            927
    x10       c10                           732
    x10       c15                           997
    x10       c25                           445
    x11       obj1                            1
    x11       c2                            773
    x11       c3                            736
    x11       c27                           124
    x11       c40                           793
    x12       obj1                            1
    x12       c14                           295
    x12       c33                           354
    x13       obj1                            1
    x13       c1                            470
    x13       c6                            917
    x13       c24                           217
    x13       c31                           928
    x14       obj1                            1
    x14       c1                            279
    x14       c4                            918
    x14       c9                            632
    x14       c18                           749
    x14       c23                           284
    x14       c37                           765
    x15       obj1                            1
    x15       c7                            939
    x15       c30                           610
    x15       c32                           529
    x15       c38                           626
    x16       obj1                            1
    x16       c3                            609
    x16       c4                            342
    x16       c7                            907
    x16       c26                           772
    x17       obj1                            1
    x17       c7                            307
    x17       c26                           978
    x18       obj1                            1
    x18       c28                           679
    x19       obj1                            1
    x19       c3                            798
    x19       c5                            763
    x19       c12                           434
    x19       c14                           145
    x19       c19                           159
    x20       obj1                            1
    x20       c2                            658
    x20       c6                            172
    x20       c16                           418
    x20       c27                           375
    x20       c32                           813
    x20       c38                           408
    x21       obj1                            1
    x21       c12                           521
    x21       c13                           572
    x21       c17                           593
    x21       c21                           611
    x21       c31                           661
    x22       obj1                            1
    x22       c2                            962
    x22       c6                            258
    x22       c8                            962
    x22       c17                           954
    x23       obj1                            1
    x23       c22                           978
    x23       c32                           616
    x23       c34                           315
    x24       obj1                            1
    x24       c2                            304
    x24       c4                            953
    x24       c11                           168
    x24       c18                           750
    x24       c29                           309
    x24       c31                           892
    x24       c39                           290
    x25       obj1                            1
    x25       c6                            490
    x25       c11                           535
    x25       c24                           476
    x25       c27                           505
    x26       obj1                            1
    x26       c11                           129
    x26       c16                           936
    x26       c33                           245
    x27       obj1                            1
    x27       c3                            795
    x27       c20                           119
    x27       c24                           354
    x27       c26                           582
    x27       c30                           852
    x27       c37                           438
    x28       obj1                            1
    x28       c7                            165
    x28       c9                            324
    x28       c23                           480
    x28       c31                           893
    x28       c39                           797
    x29       obj1                            1
    x29       c1                            901
    x29       c14                           703
    x29       c16                           169
    x29       c17                           123
    x29       c33                           526
    x30       obj1                            1
    x30       c26                           345
    x31       obj1                            1
    x31       c5                            467
    x31       c16                           587
    x31       c28                           228
    x31       c34                           443
    x32       obj1                            1
    x32       c2                            402
    x32       c20                           264
    x32       c21                           514
    x32       c28                           899
    x33       obj1                            1
    x33       c5                            657
    x33       c10                           971
    x33       c14                           593
    x33       c21                           590
    x33       c23                           713
    x33       c37                           805
    x34       obj1                            1
    x34       c2                            354
    x34       c16                           578
    x34       c22                           446
    x34       c26                           444
    x34       c36                           752
    x35       obj1                            1
    x35       c17                           540
    x35       c24                           337
    x35       c31                           327
    x36       obj1                            1
    x36       c6                            840
    x36       c10                           623
    x36       c34                           561
    x37       obj1                            1
    x37       c35                           790
    x38       obj1                            1
    x38       c2                            907
    x38       c10                           923
    x38       c21                           883
    x38       c39                           365
    x39       obj1                            1
    x39       c6                            731
    x39       c11                           553
    x39       c38                           392
    x39       c39                           688
    x40       obj1                            1
    x40       c10                           400
    x40       c12                           487
    x40       c20                           598
    x40       c25                           493
    x40       c26                           261
    x41       obj1                            1
    x41       c8                            170
    x41       c28                           513
    x41       c30                           738
    x41       c36                           902
    x42       obj1                            1
    x42       c31                           308
    x43       obj1                            1
    x43       c12                           402
    x43       c38                           912
    x44       obj1                            1
    x44       c23                           507
    x44       c24                           304
    x44       c28                           127
    x44       c38                           421
    x45       obj1                            1
    x45       c3                            291
    x45       c10                           506
    x45       c25                           982
    x45       c37                           606
    x46       obj1                            1
    x46       c9                            144
    x46       c11                           128
    x46       c25                           279
    x46       c35                           870
    x46       c36                           945
    x47       obj1                            1
    x47       c3                            548
    x47       c9                            692
    x47       c23                           423
    x48       obj1                            1
    x48       c31                           347
    x49       obj1                            1
    x49       c9                            639
    x49       c13                           396
    x49       c27                           901
    x49       c29                           221
    x50       obj1                            1
    x50       c18                           831
    x50       c32                           282
    x50       c34                           861
    x51       obj1                            1
    x51       c7                            599
    x51       c18                           817
    x51       c19                           321
    x52       obj1                            1
    x52       c6                            200
    x52       c13                           929
    x52       c15                           495
    x52       c27                           812
    x52       c32                           123
    x52       c35                           348
    x52       c38                           518
    x53       obj1                            1
    x53       c7                            752
    x53       c16                           637
    x53       c23                           313
    x53       c30                           270
    x54       obj1                            1
    x54       c5                            611
    x54       c22                           141
    x54       c33                           362
    x55       obj1                            1
    x55       c6                            194
    x55       c10                           576
    x55       c11                           303
    x55       c35                           877
    x55       c38                           218
    x55       c40                           768
    x56       obj1                            1
    x56       c15                           866
    x56       c18                           193
    x56       c21                           981
    x56       c22                           711
    x56       c26                           874
    x57       obj1                            1
    x57       c24                           433
    x58       obj1                            1
    x58       c1                            745
    x58       c4                            353
    x58       c15                           276
    x58       c18                           154
    x58       c24                           474
    x58       c29                           553
    x58       c30                           258
    x58       c35                           671
    x58       c39                           184
    x59       obj1                            1
    x59       c30                           600
    x60       obj1                            1
    x60       c4                            888
    x60       c7                            585
    x60       c11                           504
    x60       c17                           201
    x60       c32                           278
    x60       c36                           788
    x60       c38                           609
    x60       c40                           915
    x61       obj1                            1
    x61       c5                            642
    x61       c10                           180
    x61       c15                           287
    x61       c18                           344
    x61       c20                           292
    x61       c27                           394
    x61       c36                           131
    x61       c39                           584
    x62       obj1                            1
    x62       c2                            413
    x62       c31                           179
    x63       obj1                            1
    x63       c5                            463
    x63       c16                           619
    x63       c17                           458
    x63       c34                           210
    x63       c38                           123
    x64       obj1                            1
    x64       c1                            838
    x64       c7                            588
    x65       obj1                            1
    x65       c2                            742
    x65       c5                            967
    x65       c18                           154
    x65       c22                           869
    x66       obj1                            1
    x66       c1                            625
    x66       c7                            476
    x67       obj1                            1
    x67       c2                            263
    x67       c8                            683
    x67       c11                           712
    x67       c13                           405
    x67       c24                           795
    x67       c28                           417
    x68       obj1                            1
    x68       c12                           439
    x68       c21                           612
    x68       c24                           688
    x68       c32                           601
    x69       obj1                            1
    x69       c2                            815
    x69       c12                           708
    x69       c40                           517
    x70       obj1                            1
    x70       c3                            537
    x70       c10                           709
    x70       c29                           592
    x70       c36                           852
    x71       obj1                            1
    x71       c1                            612
    x71       c11                           594
    x72       obj1                            1
    x73       obj1                            1
    x73       c24                           637
    x73       c26                           823
    x73       c29                           368
    x73       c31                           963
    x73       c38                           758
    x74       obj1                            1
    x74       c5                            227
    x74       c32                           181
    x75       obj1                            1
    x75       c8                            379
    x75       c13                           958
    x75       c19                           324
    x75       c29                           612
    x75       c32                           676
    x75       c37                           928
    x75       c38                           190
    x76       obj1                            1
    x76       c28                           239
    x76       c31                           710
    x76       c33                           569
    x76       c34                           760
    x77       obj1                            1
    x77       c3                            944
    x77       c5                            641
    x77       c25                           782
    x77       c34                           801
    x77       c37                           937
    x78       obj1                            1
    x78       c9                            454
    x78       c24                           150
    x78       c26                           218
    x78       c36                           819
    x79       obj1                            1
    x79       c11                           245
    x79       c15                           623
    x79       c20                           580
    x79       c22                           321
    x79       c24                           483
    x79       c25                           964
    x79       c31                           241
    x80       obj1                            1
    x80       c11                           666
    x80       c18                           986
    x80       c20                           638
    x80       c40                           726
    MARK0001  'MARKER'                 'INTEND'
RHS
    rhs       c1                           2688
    rhs       c2                           3297
    rhs       c3                           3085
    rhs       c4                           2051
    rhs       c5                           3246
    rhs       c6                           3112
    rhs       c7                           2995
    rhs       c8                           1097
    rhs       c9                           1870
    rhs       c10                          3026
    rhs       c11                          2634
    rhs       c12                          1922
    rhs       c13                          2289
    rhs       c14                           868
    rhs       c15                          2117
    rhs       c16                          2603
    rhs       c17                          1863
    rhs       c18                          2845
    rhs       c19                           743
    rhs       c20                          1481
    rhs       c21                          3019
    rhs       c22                          1733
    rhs       c23                          1891
    rhs       c24                          2674
    rhs       c25                          1973
    rhs       c26                          2649
    rhs       c27                          2593
    rhs       c28                          1551
    rhs       c29                          1451
    rhs       c30                          1931
    rhs       c31                          3523
    rhs       c32                          2468
    rhs       c33                          1028
    rhs       c34                          1976
    rhs       c35                          1924
    rhs       c36                          2684
    rhs       c37                          2240
    rhs       c38                          2588
    rhs       c39                          1645
    rhs       c40                          1860
BOUNDS
 LI bnd       x1        0
 LI bnd       x2        0
 LI bnd       x3        0
 LI bnd       x4        0
 LI bnd       x5        0
 LI bnd       x6        0
 LI bnd       x7        0
 LI bnd       x8        0
 LI bnd       x9        0
 LI bnd       x10       0
 LI bnd       x11       0
 LI bnd       x12       0
 LI bnd       x13       0
 LI bnd       x14       0
 LI bnd       x15       0
 LI bnd       x16       0
 LI bnd       x17       0
 LI bnd       x18       0
 LI bnd       x19       0
 LI bnd       x20       0
 LI bnd       x21       0
 LI bnd       x22       0
 LI bnd       x23       0
 LI bnd       x24       0
 LI bnd       x25       0
 LI bnd       x26       0
 LI bnd       x27       0
 LI bnd       x28       0
 LI bnd       x29       0
 LI bnd       x30       0
 LI bnd       x31       0
 LI bnd       x32       0
 LI bnd       x33       0
 LI bnd       x34       0
 LI bnd       x35       0
 LI bnd       x36       0
 LI bnd       x37       0
 LI bnd       x38       0
 LI bnd       x39       0
 LI bnd       x40       0
 LI bnd       x41       0
 LI bnd       x42       0
 LI bnd       x43       0
 LI bnd       x44       0
 LI bnd       x45       0
 LI bnd       x46       0
 LI bnd       x47       0
 LI bnd       x48       0
 LI bnd       x49       0
 LI bnd       x50       0
 LI bnd       x51       0
 LI bnd       x52       0
 LI bnd       x53       0
 LI bnd       x54       0
 LI bnd       x55       0
 LI bnd       x56       0
 LI bnd       x57       0
 LI bnd       x58       0
 LI bnd       x59       0
 LI bnd       x60       0
 LI bnd       x61       0
 LI bnd       x62       0
 LI bnd       x63       0
 LI bnd       x64       0
 LI bnd       x65       0
 LI bnd       x66       0
 LI bnd       x67       0
 LI bnd       x68       0
 LI bnd       x69       0
 LI bnd       x70       0
 LI bnd       x71       0
 LI bnd       x72       0
 LI bnd       x73       0
 LI bnd       x74       0
 LI bnd       x75       0
 LI bnd       x76       0
 LI bnd       x77       0
 LI bnd       x78       0
 LI bnd       x79       0
 LI bnd       x80       0
ENDATA
